nNurses = 258;
hours = 97;
demand = [61 61 44 1 53 57 11 44 53 61 40 1 15 57 29 13 6 32 57 53 28 42 11 34 49 1 12 36 0 37 11 34 26 47 35 17 35 59 3 53 43 28 5 13 40 63 0 57 45 2 7 47 19 36 7 54 63 17 54 30 63 37 33 51 8 8 14 15 32 16 33 61 35 37 38 9 5 1 30 47 60 18 6 47 27 13 62 39 37 24 31 60 51 5 20 18 54];
minHours = 4;
maxHours = 35;
maxConsec = 32;
maxPresence = 43;